param c_r :=
1 1 0.0
2 1 0.13
3 1 0.0
4 1 0.13
5 1 0.0
6 1 0.13
7 1 0.0
8 1 0.13
9 1 0.0
10 1 5.81
11 1 20.97
12 1 0.0
13 1 5.81
14 1 20.97
15 1 0.0
16 1 5.81
17 1 20.97
18 1 0.0
19 1 5.81
20 1 20.97
21 1 0.0
22 1 5.81
23 1 20.97
24 1 0.0
25 1 5.81
26 1 20.97
27 1 0.0
28 1 0.13
29 1 0.0
30 1 0.13
;
